data/CVRPLIB/Vrp-Set-XML100/instances/XML100_1212_05.vrp
NAME : XML100_1212_05
COMMENT : Generated by Queiroga, Sadykov, Uchoa, and Vidal (2021)
TYPE : CVRP
DIMENSION : 101
EDGE_WEIGHT_TYPE : EUC_2D
CAPACITY : 7
NODE_COORD_SECTION
1    557  30  
2    375  11  
3    766  905 
4    334  370 
5    802  228 
6    267  365 
7    375  316 
8    824  238 
9    818  184 
10   399  15  
11   449  129 
12   401  340 
13   657  247 
14   381  107 
15   920  925 
16   920  793 
17   877  829 
18   766  958 
19   853  209 
20   201  408 
21   294  211 
22   724  985 
23   399  20  
24   883  868 
25   436  395 
26   375  134 
27   748  899 
28   349  6   
29   743  963 
30   439  177 
31   924  988 
32   742  896 
33   836  856 
34   764  903 
35   293  195 
36   865  194 
37   830  971 
38   945  246 
39   907  216 
40   342  184 
41   338  359 
42   345  286 
43   895  265 
44   843  162 
45   428  25  
46   792  932 
47   891  219 
48   961  977 
49   436  64  
50   353  489 
51   966  827 
52   370  234 
53   499  72  
54   291  66  
55   854  759 
56   790  653 
57   427  293 
58   640  792 
59   701  843 
60   826  179 
61   932  147 
62   86   300 
63   341  9   
64   202  21  
65   689  972 
66   815  201 
67   247  141 
68   938  188 
69   481  59  
70   429  37  
71   905  715 
72   317  452 
73   329  57  
74   384  225 
75   350  352 
76   865  204 
77   362  345 
78   874  221 
79   896  986 
80   817  903 
81   340  386 
82   235  326 
83   868  184 
84   796  952 
85   428  397 
86   852  991 
87   330  344 
88   859  223 
89   330  3   
90   980  847 
91   728  891 
92   129  150 
93   170  388 
94   831  178 
95   969  962 
96   978  206 
97   835  788 
98   745  887 
99   385  352 
100  891  336 
101  772  798 
DEMAND_SECTION
1    0   
2    1   
3    1   
4    1   
5    1   
6    1   
7    1   
8    1   
9    1   
10   1   
11   1   
12   1   
13   1   
14   1   
15   1   
16   1   
17   1   
18   1   
19   1   
20   1   
21   1   
22   1   
23   1   
24   1   
25   1   
26   1   
27   1   
28   1   
29   1   
30   1   
31   1   
32   1   
33   1   
34   1   
35   1   
36   1   
37   1   
38   1   
39   1   
40   1   
41   1   
42   1   
43   1   
44   1   
45   1   
46   1   
47   1   
48   1   
49   1   
50   1   
51   1   
52   1   
53   1   
54   1   
55   1   
56   1   
57   1   
58   1   
59   1   
60   1   
61   1   
62   1   
63   1   
64   1   
65   1   
66   1   
67   1   
68   1   
69   1   
70   1   
71   1   
72   1   
73   1   
74   1   
75   1   
76   1   
77   1   
78   1   
79   1   
80   1   
81   1   
82   1   
83   1   
84   1   
85   1   
86   1   
87   1   
88   1   
89   1   
90   1   
91   1   
92   1   
93   1   
94   1   
95   1   
96   1   
97   1   
98   1   
99   1   
100  1   
101  1   
DEPOT_SECTION
1
-1
EOF
