data/CVRPLIB/Vrp-Set-XML100/solutions/XML100_1212_05.sol
Route #1: 60 67 95 37 42 99 7
Route #2: 79 45 83 17 28 21 64
Route #3: 56 11 98 76 74 86 41
Route #4: 10 29 73 51 25 13 48
Route #5: 36 85 78 30 47 94 14
Route #6: 58 90 31 26 2 33 97
Route #7: 81 5 19 92 61 91 63
Route #8: 9 1 27 88 62 22 44
Route #9: 6 40 3 80 71 49 84
Route #10: 24 57 100 96 54 55 12
Route #11: 39 20 34 66 53 72 69
Route #12: 68 52
Route #13: 65 18 75 35 93 59 8
Route #14: 16 32 23 89 50 15 70
Route #15: 43 82 38 46 77 87 4
Cost 17790
